11 1 13 1 14 1 16 1 18 1 14 1 18 3 17 1 12 1 17 3 16 1 12 1 16 3
11 1 13 1 14 1 16 1 18 1 14 1 18 1 23 1 21 1 18 1 14 1 18 1 21 5
11 1 13 1 14 1 16 1 18 1 14 1 18 3 17 1 12 1 17 3 16 1 12 1 16 3
11 1 13 1 14 1 16 1 18 1 14 1 18 1 23 1 21 1 18 1 14 1 13 1 11 5
11 1 13 1 14 1 16 1 18 1 14 1 18 3 17 1 12 1 17 3 16 1 12 1 16 3
11 1 13 1 14 1 16 1 18 1 14 1 18 1 23 1 21 1 18 1 14 1 18 1 21 5
11 1 13 1 14 1 16 1 18 1 14 1 18 3 17 1 12 1 17 3 16 1 12 1 16 3
11 1 13 1 14 1 16 1 18 1 14 1 18 1 23 1 22 1 18 1 22 1 23 1 23 3